;; translated from ./ctigar/hsortprime.c.vmt
;; original benchmark available at: https://es-static.fbk.eu/people/griggio/ic3ia/index.html
;; author: Alberto Griggio <griggio@fbk.eu>
(set-logic HORN)
(declare-fun state (Bool Bool Bool Bool Bool Bool Int Int Int Int Int) Bool)
(assert (forall ((|.s.4| Bool) (|.s.3| Bool) (|.s.5| Bool) (|.s.2| Bool) (|.s.0| Bool) (|.s.1| Bool) (|.s.1.next| Bool) (|.s.0.next| Bool) (|.s.2.next| Bool) (|.s.3.next| Bool) (|.s.4.next| Bool) (|.s.5.next| Bool) (|main.i.next| Int) (|main.i| Int) (|main.j.next| Int) (|main.j| Int) (|main.l.next| Int) (|main.l| Int) (|main.r.next| Int) (|main.r| Int) (|main.n.next| Int) (|main.n| Int) (|.inputVar.0| Int)) (=> (let ((.def_23 (not .s.5)))
(let ((.def_20 (not .s.4)))
(let ((.def_17 (not .s.3)))
(let ((.def_14 (not .s.2)))
(let ((.def_10 (not .s.1)))
(let ((.def_12 (and .def_10 .s.0)))
(let ((.def_15 (and .def_12 .def_14)))
(let ((.def_18 (and .def_15 .def_17)))
(let ((.def_21 (and .def_18 .def_20)))
(let ((.def_24 (and .def_21 .def_23)))
.def_24)))))))))) (state |.s.1| |.s.0| |.s.2| |.s.3| |.s.4| |.s.5| |main.i| |main.j| |main.l| |main.r| |main.n|))))
(assert (forall ((|.s.4| Bool) (|.s.3| Bool) (|.s.5| Bool) (|.s.2| Bool) (|.s.0| Bool) (|.s.1| Bool) (|.s.1.next| Bool) (|.s.0.next| Bool) (|.s.2.next| Bool) (|.s.3.next| Bool) (|.s.4.next| Bool) (|.s.5.next| Bool) (|main.i.next| Int) (|main.i| Int) (|main.j.next| Int) (|main.j| Int) (|main.l.next| Int) (|main.l| Int) (|main.r.next| Int) (|main.r| Int) (|main.n.next| Int) (|main.n| Int) (|.inputVar.0| Int)) (=> (and (state |.s.1| |.s.0| |.s.2| |.s.3| |.s.4| |.s.5| |main.i| |main.j| |main.l| |main.r| |main.n|) (let ((.def_25 (not .s.0)))
(let ((.def_10 (not .s.1)))
(let ((.def_86 (and .def_10 .def_25)))
(let ((.def_14 (not .s.2)))
(let ((.def_167 (and .def_14 .def_86)))
(let ((.def_17 (not .s.3)))
(let ((.def_290 (and .def_17 .def_167)))
(let ((.def_20 (not .s.4)))
(let ((.def_291 (and .def_20 .def_290)))
(let ((.def_23 (not .s.5)))
(let ((.def_736 (and .def_23 .def_291)))
(let ((.def_737 (not .def_736)))
(let ((.def_74 (not .s.1.next)))
(let ((.def_33 (not .s.0.next)))
(let ((.def_75 (and .def_33 .def_74)))
(let ((.def_73 (not .s.2.next)))
(let ((.def_76 (and .def_73 .def_75)))
(let ((.def_72 (not .s.3.next)))
(let ((.def_77 (and .def_72 .def_76)))
(let ((.def_41 (not .s.4.next)))
(let ((.def_78 (and .def_41 .def_77)))
(let ((.def_71 (not .s.5.next)))
(let ((.def_79 (and .def_71 .def_78)))
(let ((.def_47 (= main.i main.i.next)))
(let ((.def_80 (and .def_47 .def_79)))
(let ((.def_51 (= main.j main.j.next)))
(let ((.def_81 (and .def_51 .def_80)))
(let ((.def_55 (= main.l main.l.next)))
(let ((.def_82 (and .def_55 .def_81)))
(let ((.def_59 (= main.r main.r.next)))
(let ((.def_83 (and .def_59 .def_82)))
(let ((.def_63 (= main.n main.n.next)))
(let ((.def_84 (and .def_63 .def_83)))
(let ((.def_738 (or .def_84 .def_737)))
(let ((.def_208 (and .s.0.next .s.1.next)))
(let ((.def_383 (and .def_73 .def_208)))
(let ((.def_396 (and .def_72 .def_383)))
(let ((.def_397 (and .def_41 .def_396)))
(let ((.def_729 (and .def_71 .def_397)))
(let ((.def_730 (and .def_47 .def_729)))
(let ((.def_731 (and .def_51 .def_730)))
(let ((.def_732 (and .def_55 .def_731)))
(let ((.def_733 (and .def_59 .def_732)))
(let ((.def_734 (and .def_63 .def_733)))
(let ((.def_716 (<= 2 main.n)))
(let ((.def_12 (and .def_10 .s.0)))
(let ((.def_15 (and .def_12 .def_14)))
(let ((.def_18 (and .def_15 .def_17)))
(let ((.def_21 (and .def_18 .def_20)))
(let ((.def_24 (and .def_21 .def_23)))
(let ((.def_727 (and .def_24 .def_716)))
(let ((.def_728 (not .def_727)))
(let ((.def_735 (or .def_728 .def_734)))
(let ((.def_739 (and .def_735 .def_738)))
(let ((.def_35 (and .def_33 .s.1.next)))
(let ((.def_137 (and .def_35 .def_73)))
(let ((.def_138 (and .def_72 .def_137)))
(let ((.def_139 (and .def_41 .def_138)))
(let ((.def_720 (and .def_71 .def_139)))
(let ((.def_721 (and .def_47 .def_720)))
(let ((.def_722 (and .def_51 .def_721)))
(let ((.def_723 (and .def_55 .def_722)))
(let ((.def_724 (and .def_59 .def_723)))
(let ((.def_725 (and .def_63 .def_724)))
(let ((.def_717 (not .def_716)))
(let ((.def_718 (and .def_24 .def_717)))
(let ((.def_719 (not .def_718)))
(let ((.def_726 (or .def_719 .def_725)))
(let ((.def_740 (and .def_726 .def_739)))
(let ((.def_26 (and .s.1 .def_25)))
(let ((.def_132 (and .def_14 .def_26)))
(let ((.def_267 (and .def_17 .def_132)))
(let ((.def_268 (and .def_20 .def_267)))
(let ((.def_713 (and .def_23 .def_268)))
(let ((.def_714 (not .def_713)))
(let ((.def_715 (or .def_84 .def_714)))
(let ((.def_741 (and .def_715 .def_740)))
(let ((.def_122 (and .s.2.next .def_75)))
(let ((.def_247 (and .def_72 .def_122)))
(let ((.def_248 (and .def_41 .def_247)))
(let ((.def_706 (and .def_71 .def_248)))
(let ((.def_707 (and .def_47 .def_706)))
(let ((.def_708 (and .def_51 .def_707)))
(let ((.def_709 (and .def_55 .def_708)))
(let ((.def_710 (and .def_59 .def_709)))
(let ((.def_711 (and .def_63 .def_710)))
(let ((.def_693 (= main.r main.n)))
(let ((.def_703 (not .def_693)))
(let ((.def_103 (and .s.1 .s.0)))
(let ((.def_104 (and .def_14 .def_103)))
(let ((.def_240 (and .def_17 .def_104)))
(let ((.def_241 (and .def_20 .def_240)))
(let ((.def_692 (and .def_23 .def_241)))
(let ((.def_704 (and .def_692 .def_703)))
(let ((.def_705 (not .def_704)))
(let ((.def_712 (or .def_705 .def_711)))
(let ((.def_742 (and .def_712 .def_741)))
(let ((.def_92 (and .s.0.next .def_74)))
(let ((.def_93 (and .s.2.next .def_92)))
(let ((.def_258 (and .def_72 .def_93)))
(let ((.def_259 (and .def_41 .def_258)))
(let ((.def_696 (and .def_71 .def_259)))
(let ((.def_697 (and .def_47 .def_696)))
(let ((.def_698 (and .def_51 .def_697)))
(let ((.def_699 (and .def_55 .def_698)))
(let ((.def_700 (and .def_59 .def_699)))
(let ((.def_701 (and .def_63 .def_700)))
(let ((.def_694 (and .def_692 .def_693)))
(let ((.def_695 (not .def_694)))
(let ((.def_702 (or .def_695 .def_701)))
(let ((.def_743 (and .def_702 .def_742)))
(let ((.def_87 (and .s.2 .def_86)))
(let ((.def_235 (and .def_17 .def_87)))
(let ((.def_236 (and .def_20 .def_235)))
(let ((.def_689 (and .def_23 .def_236)))
(let ((.def_690 (not .def_689)))
(let ((.def_691 (or .def_84 .def_690)))
(let ((.def_744 (and .def_691 .def_743)))
(let ((.def_209 (and .s.2.next .def_208)))
(let ((.def_210 (and .def_72 .def_209)))
(let ((.def_211 (and .def_41 .def_210)))
(let ((.def_682 (and .def_71 .def_211)))
(let ((.def_683 (and .def_47 .def_682)))
(let ((.def_684 (and .def_51 .def_683)))
(let ((.def_685 (and .def_55 .def_684)))
(let ((.def_686 (and .def_59 .def_685)))
(let ((.def_687 (and .def_63 .def_686)))
(let ((.def_669 (= main.i main.l)))
(let ((.def_66 (and .def_12 .s.2)))
(let ((.def_219 (and .def_17 .def_66)))
(let ((.def_220 (and .def_20 .def_219)))
(let ((.def_668 (and .def_23 .def_220)))
(let ((.def_680 (and .def_668 .def_669)))
(let ((.def_681 (not .def_680)))
(let ((.def_688 (or .def_681 .def_687)))
(let ((.def_745 (and .def_688 .def_744)))
(let ((.def_37 (and .def_35 .s.2.next)))
(let ((.def_226 (and .def_37 .def_72)))
(let ((.def_227 (and .def_41 .def_226)))
(let ((.def_673 (and .def_71 .def_227)))
(let ((.def_674 (and .def_47 .def_673)))
(let ((.def_675 (and .def_51 .def_674)))
(let ((.def_676 (and .def_55 .def_675)))
(let ((.def_677 (and .def_59 .def_676)))
(let ((.def_678 (and .def_63 .def_677)))
(let ((.def_670 (not .def_669)))
(let ((.def_671 (and .def_668 .def_670)))
(let ((.def_672 (not .def_671)))
(let ((.def_679 (or .def_672 .def_678)))
(let ((.def_746 (and .def_679 .def_745)))
(let ((.def_27 (and .s.2 .def_26)))
(let ((.def_189 (and .def_17 .def_27)))
(let ((.def_190 (and .def_20 .def_189)))
(let ((.def_665 (and .def_23 .def_190)))
(let ((.def_666 (not .def_665)))
(let ((.def_667 (or .def_84 .def_666)))
(let ((.def_747 (and .def_667 .def_746)))
(let ((.def_196 (and .s.3.next .def_76)))
(let ((.def_197 (and .def_41 .def_196)))
(let ((.def_658 (and .def_71 .def_197)))
(let ((.def_659 (and .def_47 .def_658)))
(let ((.def_660 (and .def_51 .def_659)))
(let ((.def_661 (and .def_55 .def_660)))
(let ((.def_662 (and .def_59 .def_661)))
(let ((.def_663 (and .def_63 .def_662)))
(let ((.def_155 (* (- 2) main.l)))
(let ((.def_644 (+ main.j .def_155)))
(let ((.def_645 (= .def_644 0)))
(let ((.def_655 (not .def_645)))
(let ((.def_183 (and .s.2 .def_103)))
(let ((.def_184 (and .def_17 .def_183)))
(let ((.def_185 (and .def_20 .def_184)))
(let ((.def_643 (and .def_23 .def_185)))
(let ((.def_656 (and .def_643 .def_655)))
(let ((.def_657 (not .def_656)))
(let ((.def_664 (or .def_657 .def_663)))
(let ((.def_748 (and .def_664 .def_747)))
(let ((.def_173 (and .def_73 .def_92)))
(let ((.def_174 (and .s.3.next .def_173)))
(let ((.def_175 (and .def_41 .def_174)))
(let ((.def_648 (and .def_71 .def_175)))
(let ((.def_649 (and .def_47 .def_648)))
(let ((.def_650 (and .def_51 .def_649)))
(let ((.def_651 (and .def_55 .def_650)))
(let ((.def_652 (and .def_59 .def_651)))
(let ((.def_653 (and .def_63 .def_652)))
(let ((.def_646 (and .def_643 .def_645)))
(let ((.def_647 (not .def_646)))
(let ((.def_654 (or .def_647 .def_653)))
(let ((.def_749 (and .def_654 .def_748)))
(let ((.def_168 (and .s.3 .def_167)))
(let ((.def_169 (and .def_20 .def_168)))
(let ((.def_640 (and .def_23 .def_169)))
(let ((.def_641 (not .def_640)))
(let ((.def_642 (or .def_84 .def_641)))
(let ((.def_750 (and .def_642 .def_749)))
(let ((.def_384 (and .s.3.next .def_383)))
(let ((.def_588 (and .def_41 .def_384)))
(let ((.def_633 (and .def_71 .def_588)))
(let ((.def_634 (and .def_47 .def_633)))
(let ((.def_635 (and .def_51 .def_634)))
(let ((.def_636 (and .def_55 .def_635)))
(let ((.def_637 (and .def_59 .def_636)))
(let ((.def_638 (and .def_63 .def_637)))
(let ((.def_600 (* (- 1) main.n)))
(let ((.def_112 (* 2 main.l)))
(let ((.def_601 (+ .def_112 .def_600)))
(let ((.def_620 (<= 0 .def_601)))
(let ((.def_147 (and .def_15 .s.3)))
(let ((.def_148 (and .def_20 .def_147)))
(let ((.def_619 (and .def_23 .def_148)))
(let ((.def_631 (and .def_619 .def_620)))
(let ((.def_632 (not .def_631)))
(let ((.def_639 (or .def_632 .def_638)))
(let ((.def_751 (and .def_639 .def_750)))
(let ((.def_158 (and .s.3.next .def_137)))
(let ((.def_159 (and .def_41 .def_158)))
(let ((.def_624 (and .def_71 .def_159)))
(let ((.def_625 (and .def_47 .def_624)))
(let ((.def_626 (and .def_51 .def_625)))
(let ((.def_627 (and .def_55 .def_626)))
(let ((.def_628 (and .def_59 .def_627)))
(let ((.def_629 (and .def_63 .def_628)))
(let ((.def_621 (not .def_620)))
(let ((.def_622 (and .def_619 .def_621)))
(let ((.def_623 (not .def_622)))
(let ((.def_630 (or .def_623 .def_629)))
(let ((.def_752 (and .def_630 .def_751)))
(let ((.def_133 (and .s.3 .def_132)))
(let ((.def_134 (and .def_20 .def_133)))
(let ((.def_616 (and .def_23 .def_134)))
(let ((.def_617 (not .def_616)))
(let ((.def_618 (or .def_84 .def_617)))
(let ((.def_753 (and .def_618 .def_752)))
(let ((.def_602 (<= .def_601 1)))
(let ((.def_105 (and .s.3 .def_104)))
(let ((.def_106 (and .def_20 .def_105)))
(let ((.def_599 (and .def_23 .def_106)))
(let ((.def_613 (and .def_599 .def_602)))
(let ((.def_614 (not .def_613)))
(let ((.def_94 (and .s.3.next .def_93)))
(let ((.def_95 (and .def_41 .def_94)))
(let ((.def_494 (and .def_71 .def_95)))
(let ((.def_495 (and .def_47 .def_494)))
(let ((.def_496 (and .def_51 .def_495)))
(let ((.def_497 (and .def_55 .def_496)))
(let ((.def_498 (and .def_59 .def_497)))
(let ((.def_499 (and .def_63 .def_498)))
(let ((.def_615 (or .def_499 .def_614)))
(let ((.def_754 (and .def_615 .def_753)))
(let ((.def_123 (and .s.3.next .def_122)))
(let ((.def_124 (and .def_41 .def_123)))
(let ((.def_606 (and .def_71 .def_124)))
(let ((.def_607 (and .def_47 .def_606)))
(let ((.def_608 (and .def_51 .def_607)))
(let ((.def_609 (and .def_55 .def_608)))
(let ((.def_610 (and .def_59 .def_609)))
(let ((.def_611 (and .def_63 .def_610)))
(let ((.def_603 (not .def_602)))
(let ((.def_604 (and .def_599 .def_603)))
(let ((.def_605 (not .def_604)))
(let ((.def_612 (or .def_605 .def_611)))
(let ((.def_755 (and .def_612 .def_754)))
(let ((.def_88 (and .s.3 .def_87)))
(let ((.def_89 (and .def_20 .def_88)))
(let ((.def_596 (and .def_23 .def_89)))
(let ((.def_597 (not .def_596)))
(let ((.def_598 (or .def_84 .def_597)))
(let ((.def_756 (and .def_598 .def_755)))
(let ((.def_589 (and .s.5.next .def_588)))
(let ((.def_590 (and .def_47 .def_589)))
(let ((.def_591 (and .def_51 .def_590)))
(let ((.def_592 (and .def_55 .def_591)))
(let ((.def_593 (and .def_59 .def_592)))
(let ((.def_594 (and .def_63 .def_593)))
(let ((.def_67 (and .s.3 .def_66)))
(let ((.def_68 (and .def_20 .def_67)))
(let ((.def_576 (and .def_23 .def_68)))
(let ((.def_380 (= .inputVar.0 0)))
(let ((.def_393 (not .def_380)))
(let ((.def_586 (and .def_393 .def_576)))
(let ((.def_587 (not .def_586)))
(let ((.def_595 (or .def_587 .def_594)))
(let ((.def_757 (and .def_595 .def_756)))
(let ((.def_39 (and .def_37 .s.3.next)))
(let ((.def_42 (and .def_39 .def_41)))
(let ((.def_579 (and .def_42 .def_71)))
(let ((.def_580 (and .def_47 .def_579)))
(let ((.def_581 (and .def_51 .def_580)))
(let ((.def_582 (and .def_55 .def_581)))
(let ((.def_583 (and .def_59 .def_582)))
(let ((.def_584 (and .def_63 .def_583)))
(let ((.def_577 (and .def_380 .def_576)))
(let ((.def_578 (not .def_577)))
(let ((.def_585 (or .def_578 .def_584)))
(let ((.def_758 (and .def_585 .def_757)))
(let ((.def_568 (and .s.4.next .def_247)))
(let ((.def_569 (and .def_71 .def_568)))
(let ((.def_570 (and .def_47 .def_569)))
(let ((.def_571 (and .def_51 .def_570)))
(let ((.def_572 (and .def_55 .def_571)))
(let ((.def_573 (and .def_59 .def_572)))
(let ((.def_574 (and .def_63 .def_573)))
(let ((.def_28 (and .s.3 .def_27)))
(let ((.def_29 (and .def_20 .def_28)))
(let ((.def_555 (and .def_23 .def_29)))
(let ((.def_566 (and .def_393 .def_555)))
(let ((.def_567 (not .def_566)))
(let ((.def_575 (or .def_567 .def_574)))
(let ((.def_759 (and .def_575 .def_758)))
(let ((.def_329 (and .s.3.next .def_209)))
(let ((.def_558 (and .def_41 .def_329)))
(let ((.def_559 (and .def_71 .def_558)))
(let ((.def_560 (and .def_47 .def_559)))
(let ((.def_561 (and .def_51 .def_560)))
(let ((.def_562 (and .def_55 .def_561)))
(let ((.def_563 (and .def_59 .def_562)))
(let ((.def_564 (and .def_63 .def_563)))
(let ((.def_556 (and .def_380 .def_555)))
(let ((.def_557 (not .def_556)))
(let ((.def_565 (or .def_557 .def_564)))
(let ((.def_760 (and .def_565 .def_759)))
(let ((.def_547 (and .s.4.next .def_77)))
(let ((.def_548 (and .def_71 .def_547)))
(let ((.def_549 (and .def_47 .def_548)))
(let ((.def_550 (and .def_51 .def_549)))
(let ((.def_551 (and .def_55 .def_550)))
(let ((.def_552 (and .def_59 .def_551)))
(let ((.def_553 (and .def_63 .def_552)))
(let ((.def_110 (* (- 1) main.r)))
(let ((.def_532 (+ main.j .def_110)))
(let ((.def_533 (<= .def_532 (- 1))))
(let ((.def_544 (not .def_533)))
(let ((.def_304 (and .s.3 .def_183)))
(let ((.def_530 (and .def_20 .def_304)))
(let ((.def_531 (and .def_23 .def_530)))
(let ((.def_545 (and .def_531 .def_544)))
(let ((.def_546 (not .def_545)))
(let ((.def_554 (or .def_546 .def_553)))
(let ((.def_761 (and .def_554 .def_760)))
(let ((.def_295 (and .def_72 .def_173)))
(let ((.def_536 (and .s.4.next .def_295)))
(let ((.def_537 (and .def_71 .def_536)))
(let ((.def_538 (and .def_47 .def_537)))
(let ((.def_539 (and .def_51 .def_538)))
(let ((.def_540 (and .def_55 .def_539)))
(let ((.def_541 (and .def_59 .def_540)))
(let ((.def_542 (and .def_63 .def_541)))
(let ((.def_534 (and .def_531 .def_533)))
(let ((.def_535 (not .def_534)))
(let ((.def_543 (or .def_535 .def_542)))
(let ((.def_762 (and .def_543 .def_761)))
(let ((.def_526 (and .s.4 .def_290)))
(let ((.def_527 (and .def_23 .def_526)))
(let ((.def_528 (not .def_527)))
(let ((.def_529 (or .def_84 .def_528)))
(let ((.def_763 (and .def_529 .def_762)))
(let ((.def_518 (and .s.4.next .def_138)))
(let ((.def_519 (and .def_71 .def_518)))
(let ((.def_515 (* (- 1) main.j)))
(let ((.def_516 (+ main.i.next .def_515)))
(let ((.def_517 (= .def_516 1)))
(let ((.def_520 (and .def_517 .def_519)))
(let ((.def_521 (and .def_51 .def_520)))
(let ((.def_522 (and .def_55 .def_521)))
(let ((.def_523 (and .def_59 .def_522)))
(let ((.def_524 (and .def_63 .def_523)))
(let ((.def_511 (and .def_18 .s.4)))
(let ((.def_512 (and .def_23 .def_511)))
(let ((.def_513 (not .def_512)))
(let ((.def_525 (or .def_513 .def_524)))
(let ((.def_764 (and .def_525 .def_763)))
(let ((.def_151 (* (- 1) main.j.next)))
(let ((.def_419 (* 2 main.j)))
(let ((.def_421 (+ .def_419 .def_151)))
(let ((.def_504 (= .def_421 (- 2))))
(let ((.def_408 (and .s.4.next .def_396)))
(let ((.def_409 (and .def_71 .def_408)))
(let ((.def_505 (and .def_409 .def_504)))
(let ((.def_506 (and .def_47 .def_505)))
(let ((.def_507 (and .def_55 .def_506)))
(let ((.def_508 (and .def_59 .def_507)))
(let ((.def_509 (and .def_63 .def_508)))
(let ((.def_501 (and .s.4 .def_267)))
(let ((.def_502 (and .def_23 .def_501)))
(let ((.def_503 (not .def_502)))
(let ((.def_510 (or .def_503 .def_509)))
(let ((.def_765 (and .def_510 .def_764)))
(let ((.def_491 (and .s.4 .def_240)))
(let ((.def_492 (and .def_23 .def_491)))
(let ((.def_493 (not .def_492)))
(let ((.def_500 (or .def_493 .def_499)))
(let ((.def_766 (and .def_500 .def_765)))
(let ((.def_483 (and .s.4.next .def_158)))
(let ((.def_484 (and .def_71 .def_483)))
(let ((.def_485 (and .def_47 .def_484)))
(let ((.def_486 (and .def_51 .def_485)))
(let ((.def_487 (and .def_55 .def_486)))
(let ((.def_488 (and .def_59 .def_487)))
(let ((.def_489 (and .def_63 .def_488)))
(let ((.def_469 (and .s.4 .def_235)))
(let ((.def_470 (and .def_23 .def_469)))
(let ((.def_481 (and .def_393 .def_470)))
(let ((.def_482 (not .def_481)))
(let ((.def_490 (or .def_482 .def_489)))
(let ((.def_767 (and .def_490 .def_766)))
(let ((.def_473 (and .s.4.next .def_258)))
(let ((.def_474 (and .def_71 .def_473)))
(let ((.def_475 (and .def_47 .def_474)))
(let ((.def_476 (and .def_51 .def_475)))
(let ((.def_477 (and .def_55 .def_476)))
(let ((.def_478 (and .def_59 .def_477)))
(let ((.def_479 (and .def_63 .def_478)))
(let ((.def_471 (and .def_380 .def_470)))
(let ((.def_472 (not .def_471)))
(let ((.def_480 (or .def_472 .def_479)))
(let ((.def_768 (and .def_480 .def_767)))
(let ((.def_461 (and .s.4.next .def_210)))
(let ((.def_462 (and .def_71 .def_461)))
(let ((.def_463 (and .def_47 .def_462)))
(let ((.def_464 (and .def_51 .def_463)))
(let ((.def_465 (and .def_55 .def_464)))
(let ((.def_466 (and .def_59 .def_465)))
(let ((.def_467 (and .def_63 .def_466)))
(let ((.def_447 (<= main.j main.r)))
(let ((.def_445 (and .s.4 .def_219)))
(let ((.def_446 (and .def_23 .def_445)))
(let ((.def_459 (and .def_446 .def_447)))
(let ((.def_460 (not .def_459)))
(let ((.def_468 (or .def_460 .def_467)))
(let ((.def_769 (and .def_468 .def_768)))
(let ((.def_451 (and .s.4.next .def_226)))
(let ((.def_452 (and .def_71 .def_451)))
(let ((.def_453 (and .def_47 .def_452)))
(let ((.def_454 (and .def_51 .def_453)))
(let ((.def_455 (and .def_55 .def_454)))
(let ((.def_456 (and .def_59 .def_455)))
(let ((.def_457 (and .def_63 .def_456)))
(let ((.def_448 (not .def_447)))
(let ((.def_449 (and .def_446 .def_448)))
(let ((.def_450 (not .def_449)))
(let ((.def_458 (or .def_450 .def_457)))
(let ((.def_770 (and .def_458 .def_769)))
(let ((.def_441 (and .s.4 .def_189)))
(let ((.def_442 (and .def_23 .def_441)))
(let ((.def_443 (not .def_442)))
(let ((.def_444 (or .def_84 .def_443)))
(let ((.def_771 (and .def_444 .def_770)))
(let ((.def_433 (and .s.4.next .def_196)))
(let ((.def_434 (and .def_71 .def_433)))
(let ((.def_432 (= main.i.next main.j)))
(let ((.def_435 (and .def_432 .def_434)))
(let ((.def_436 (and .def_51 .def_435)))
(let ((.def_437 (and .def_55 .def_436)))
(let ((.def_438 (and .def_59 .def_437)))
(let ((.def_439 (and .def_63 .def_438)))
(let ((.def_429 (and .s.4 .def_184)))
(let ((.def_430 (and .def_23 .def_429)))
(let ((.def_431 (not .def_430)))
(let ((.def_440 (or .def_431 .def_439)))
(let ((.def_772 (and .def_440 .def_771)))
(let ((.def_422 (= .def_421 0)))
(let ((.def_271 (and .s.4.next .def_174)))
(let ((.def_272 (and .def_71 .def_271)))
(let ((.def_423 (and .def_272 .def_422)))
(let ((.def_424 (and .def_47 .def_423)))
(let ((.def_425 (and .def_55 .def_424)))
(let ((.def_426 (and .def_59 .def_425)))
(let ((.def_427 (and .def_63 .def_426)))
(let ((.def_416 (and .s.4 .def_168)))
(let ((.def_417 (and .def_23 .def_416)))
(let ((.def_418 (not .def_417)))
(let ((.def_428 (or .def_418 .def_427)))
(let ((.def_773 (and .def_428 .def_772)))
(let ((.def_410 (and .def_47 .def_409)))
(let ((.def_411 (and .def_51 .def_410)))
(let ((.def_412 (and .def_55 .def_411)))
(let ((.def_413 (and .def_59 .def_412)))
(let ((.def_414 (and .def_63 .def_413)))
(let ((.def_405 (and .s.4 .def_147)))
(let ((.def_406 (and .def_23 .def_405)))
(let ((.def_407 (not .def_406)))
(let ((.def_415 (or .def_407 .def_414)))
(let ((.def_774 (and .def_415 .def_773)))
(let ((.def_398 (and .s.5.next .def_397)))
(let ((.def_399 (and .def_47 .def_398)))
(let ((.def_400 (and .def_51 .def_399)))
(let ((.def_401 (and .def_55 .def_400)))
(let ((.def_402 (and .def_59 .def_401)))
(let ((.def_403 (and .def_63 .def_402)))
(let ((.def_377 (and .s.4 .def_133)))
(let ((.def_378 (and .def_23 .def_377)))
(let ((.def_394 (and .def_378 .def_393)))
(let ((.def_395 (not .def_394)))
(let ((.def_404 (or .def_395 .def_403)))
(let ((.def_775 (and .def_404 .def_774)))
(let ((.def_385 (and .s.4.next .def_384)))
(let ((.def_386 (and .def_71 .def_385)))
(let ((.def_387 (and .def_47 .def_386)))
(let ((.def_388 (and .def_51 .def_387)))
(let ((.def_389 (and .def_55 .def_388)))
(let ((.def_390 (and .def_59 .def_389)))
(let ((.def_391 (and .def_63 .def_390)))
(let ((.def_381 (and .def_378 .def_380)))
(let ((.def_382 (not .def_381)))
(let ((.def_392 (or .def_382 .def_391)))
(let ((.def_776 (and .def_392 .def_775)))
(let ((.def_369 (and .s.4.next .def_94)))
(let ((.def_370 (and .def_71 .def_369)))
(let ((.def_371 (and .def_47 .def_370)))
(let ((.def_372 (and .def_51 .def_371)))
(let ((.def_373 (and .def_55 .def_372)))
(let ((.def_374 (and .def_59 .def_373)))
(let ((.def_375 (and .def_63 .def_374)))
(let ((.def_355 (<= 2 main.l)))
(let ((.def_353 (and .s.4 .def_105)))
(let ((.def_354 (and .def_23 .def_353)))
(let ((.def_367 (and .def_354 .def_355)))
(let ((.def_368 (not .def_367)))
(let ((.def_376 (or .def_368 .def_375)))
(let ((.def_777 (and .def_376 .def_776)))
(let ((.def_359 (and .s.4.next .def_123)))
(let ((.def_360 (and .def_71 .def_359)))
(let ((.def_361 (and .def_47 .def_360)))
(let ((.def_362 (and .def_51 .def_361)))
(let ((.def_363 (and .def_55 .def_362)))
(let ((.def_364 (and .def_59 .def_363)))
(let ((.def_365 (and .def_63 .def_364)))
(let ((.def_356 (not .def_355)))
(let ((.def_357 (and .def_354 .def_356)))
(let ((.def_358 (not .def_357)))
(let ((.def_366 (or .def_358 .def_365)))
(let ((.def_778 (and .def_366 .def_777)))
(let ((.def_349 (and .s.4 .def_88)))
(let ((.def_350 (and .def_23 .def_349)))
(let ((.def_351 (not .def_350)))
(let ((.def_352 (or .def_84 .def_351)))
(let ((.def_779 (and .def_352 .def_778)))
(let ((.def_341 (and .def_39 .s.4.next)))
(let ((.def_342 (and .def_71 .def_341)))
(let ((.def_343 (and .def_47 .def_342)))
(let ((.def_344 (and .def_51 .def_343)))
(let ((.def_345 (and .def_55 .def_344)))
(let ((.def_346 (and .def_59 .def_345)))
(let ((.def_347 (and .def_63 .def_346)))
(let ((.def_326 (<= 2 main.r)))
(let ((.def_338 (not .def_326)))
(let ((.def_324 (and .s.4 .def_67)))
(let ((.def_325 (and .def_23 .def_324)))
(let ((.def_339 (and .def_325 .def_338)))
(let ((.def_340 (not .def_339)))
(let ((.def_348 (or .def_340 .def_347)))
(let ((.def_780 (and .def_348 .def_779)))
(let ((.def_330 (and .s.4.next .def_329)))
(let ((.def_331 (and .def_71 .def_330)))
(let ((.def_332 (and .def_47 .def_331)))
(let ((.def_333 (and .def_51 .def_332)))
(let ((.def_334 (and .def_55 .def_333)))
(let ((.def_335 (and .def_59 .def_334)))
(let ((.def_336 (and .def_63 .def_335)))
(let ((.def_327 (and .def_325 .def_326)))
(let ((.def_328 (not .def_327)))
(let ((.def_337 (or .def_328 .def_336)))
(let ((.def_781 (and .def_337 .def_780)))
(let ((.def_320 (and .s.4 .def_28)))
(let ((.def_321 (and .def_23 .def_320)))
(let ((.def_322 (not .def_321)))
(let ((.def_323 (or .def_84 .def_322)))
(let ((.def_782 (and .def_323 .def_781)))
(let ((.def_313 (and .s.5.next .def_78)))
(let ((.def_310 (* (- 1) main.l)))
(let ((.def_311 (+ main.i.next .def_310)))
(let ((.def_312 (= .def_311 (- 1))))
(let ((.def_314 (and .def_312 .def_313)))
(let ((.def_315 (and .def_51 .def_314)))
(let ((.def_316 (and .def_55 .def_315)))
(let ((.def_317 (and .def_59 .def_316)))
(let ((.def_318 (and .def_63 .def_317)))
(let ((.def_305 (and .s.4 .def_304)))
(let ((.def_306 (and .def_23 .def_305)))
(let ((.def_307 (not .def_306)))
(let ((.def_319 (or .def_307 .def_318)))
(let ((.def_783 (and .def_319 .def_782)))
(let ((.def_296 (and .def_41 .def_295)))
(let ((.def_297 (and .s.5.next .def_296)))
(let ((.def_156 (+ main.j.next .def_155)))
(let ((.def_294 (= .def_156 (- 2))))
(let ((.def_298 (and .def_294 .def_297)))
(let ((.def_299 (and .def_47 .def_298)))
(let ((.def_300 (and .def_55 .def_299)))
(let ((.def_301 (and .def_59 .def_300)))
(let ((.def_302 (and .def_63 .def_301)))
(let ((.def_292 (and .s.5 .def_291)))
(let ((.def_293 (not .def_292)))
(let ((.def_303 (or .def_293 .def_302)))
(let ((.def_784 (and .def_303 .def_783)))
(let ((.def_281 (* (- 1) main.l.next)))
(let ((.def_282 (+ main.l .def_281)))
(let ((.def_283 (= .def_282 1)))
(let ((.def_140 (and .s.5.next .def_139)))
(let ((.def_284 (and .def_140 .def_283)))
(let ((.def_285 (and .def_47 .def_284)))
(let ((.def_286 (and .def_51 .def_285)))
(let ((.def_287 (and .def_59 .def_286)))
(let ((.def_288 (and .def_63 .def_287)))
(let ((.def_279 (and .def_21 .s.5)))
(let ((.def_280 (not .def_279)))
(let ((.def_289 (or .def_280 .def_288)))
(let ((.def_785 (and .def_289 .def_784)))
(let ((.def_273 (and .def_47 .def_272)))
(let ((.def_274 (and .def_51 .def_273)))
(let ((.def_275 (and .def_55 .def_274)))
(let ((.def_276 (and .def_59 .def_275)))
(let ((.def_277 (and .def_63 .def_276)))
(let ((.def_269 (and .s.5 .def_268)))
(let ((.def_270 (not .def_269)))
(let ((.def_278 (or .def_270 .def_277)))
(let ((.def_786 (and .def_278 .def_785)))
(let ((.def_260 (and .s.5.next .def_259)))
(let ((.def_261 (and .def_47 .def_260)))
(let ((.def_262 (and .def_51 .def_261)))
(let ((.def_263 (and .def_55 .def_262)))
(let ((.def_264 (and .def_59 .def_263)))
(let ((.def_265 (and .def_63 .def_264)))
(let ((.def_243 (<= main.l 1)))
(let ((.def_242 (and .s.5 .def_241)))
(let ((.def_256 (and .def_242 .def_243)))
(let ((.def_257 (not .def_256)))
(let ((.def_266 (or .def_257 .def_265)))
(let ((.def_787 (and .def_266 .def_786)))
(let ((.def_249 (and .s.5.next .def_248)))
(let ((.def_250 (and .def_47 .def_249)))
(let ((.def_251 (and .def_51 .def_250)))
(let ((.def_252 (and .def_55 .def_251)))
(let ((.def_253 (and .def_59 .def_252)))
(let ((.def_254 (and .def_63 .def_253)))
(let ((.def_244 (not .def_243)))
(let ((.def_245 (and .def_242 .def_244)))
(let ((.def_246 (not .def_245)))
(let ((.def_255 (or .def_246 .def_254)))
(let ((.def_788 (and .def_255 .def_787)))
(let ((.def_237 (and .s.5 .def_236)))
(let ((.def_238 (not .def_237)))
(let ((.def_239 (or .def_84 .def_238)))
(let ((.def_789 (and .def_239 .def_788)))
(let ((.def_228 (and .s.5.next .def_227)))
(let ((.def_223 (* (- 1) main.r.next)))
(let ((.def_224 (+ main.r .def_223)))
(let ((.def_225 (= .def_224 1)))
(let ((.def_229 (and .def_225 .def_228)))
(let ((.def_230 (and .def_47 .def_229)))
(let ((.def_231 (and .def_51 .def_230)))
(let ((.def_232 (and .def_55 .def_231)))
(let ((.def_233 (and .def_63 .def_232)))
(let ((.def_221 (and .s.5 .def_220)))
(let ((.def_222 (not .def_221)))
(let ((.def_234 (or .def_222 .def_233)))
(let ((.def_790 (and .def_234 .def_789)))
(let ((.def_212 (and .s.5.next .def_211)))
(let ((.def_213 (and .def_47 .def_212)))
(let ((.def_214 (and .def_51 .def_213)))
(let ((.def_215 (and .def_55 .def_214)))
(let ((.def_216 (and .def_59 .def_215)))
(let ((.def_217 (and .def_63 .def_216)))
(let ((.def_193 (<= 3 main.r)))
(let ((.def_205 (not .def_193)))
(let ((.def_191 (and .s.5 .def_190)))
(let ((.def_206 (and .def_191 .def_205)))
(let ((.def_207 (not .def_206)))
(let ((.def_218 (or .def_207 .def_217)))
(let ((.def_791 (and .def_218 .def_790)))
(let ((.def_198 (and .s.5.next .def_197)))
(let ((.def_199 (and .def_47 .def_198)))
(let ((.def_200 (and .def_51 .def_199)))
(let ((.def_201 (and .def_55 .def_200)))
(let ((.def_202 (and .def_59 .def_201)))
(let ((.def_203 (and .def_63 .def_202)))
(let ((.def_194 (and .def_191 .def_193)))
(let ((.def_195 (not .def_194)))
(let ((.def_204 (or .def_195 .def_203)))
(let ((.def_792 (and .def_204 .def_791)))
(let ((.def_186 (and .s.5 .def_185)))
(let ((.def_187 (not .def_186)))
(let ((.def_188 (or .def_84 .def_187)))
(let ((.def_793 (and .def_188 .def_792)))
(let ((.def_176 (and .s.5.next .def_175)))
(let ((.def_172 (= main.i.next main.l)))
(let ((.def_177 (and .def_172 .def_176)))
(let ((.def_178 (and .def_51 .def_177)))
(let ((.def_179 (and .def_55 .def_178)))
(let ((.def_180 (and .def_59 .def_179)))
(let ((.def_181 (and .def_63 .def_180)))
(let ((.def_170 (and .s.5 .def_169)))
(let ((.def_171 (not .def_170)))
(let ((.def_182 (or .def_171 .def_181)))
(let ((.def_794 (and .def_182 .def_793)))
(let ((.def_160 (and .s.5.next .def_159)))
(let ((.def_157 (= .def_156 0)))
(let ((.def_161 (and .def_157 .def_160)))
(let ((.def_162 (and .def_47 .def_161)))
(let ((.def_163 (and .def_55 .def_162)))
(let ((.def_164 (and .def_59 .def_163)))
(let ((.def_165 (and .def_63 .def_164)))
(let ((.def_149 (and .s.5 .def_148)))
(let ((.def_150 (not .def_149)))
(let ((.def_166 (or .def_150 .def_165)))
(let ((.def_795 (and .def_166 .def_794)))
(let ((.def_141 (and .def_47 .def_140)))
(let ((.def_142 (and .def_51 .def_141)))
(let ((.def_143 (and .def_55 .def_142)))
(let ((.def_144 (and .def_59 .def_143)))
(let ((.def_145 (and .def_63 .def_144)))
(let ((.def_135 (and .s.5 .def_134)))
(let ((.def_136 (not .def_135)))
(let ((.def_146 (or .def_136 .def_145)))
(let ((.def_796 (and .def_146 .def_795)))
(let ((.def_125 (and .s.5.next .def_124)))
(let ((.def_126 (and .def_47 .def_125)))
(let ((.def_127 (and .def_51 .def_126)))
(let ((.def_128 (and .def_55 .def_127)))
(let ((.def_129 (and .def_59 .def_128)))
(let ((.def_130 (and .def_63 .def_129)))
(let ((.def_114 (+ .def_112 .def_110)))
(let ((.def_115 (<= .def_114 1)))
(let ((.def_107 (and .s.5 .def_106)))
(let ((.def_120 (and .def_107 .def_115)))
(let ((.def_121 (not .def_120)))
(let ((.def_131 (or .def_121 .def_130)))
(let ((.def_797 (and .def_131 .def_796)))
(let ((.def_116 (not .def_115)))
(let ((.def_117 (and .def_107 .def_116)))
(let ((.def_118 (not .def_117)))
(let ((.def_44 (and .def_42 .s.5.next)))
(let ((.def_48 (and .def_44 .def_47)))
(let ((.def_52 (and .def_48 .def_51)))
(let ((.def_56 (and .def_52 .def_55)))
(let ((.def_60 (and .def_56 .def_59)))
(let ((.def_64 (and .def_60 .def_63)))
(let ((.def_119 (or .def_64 .def_118)))
(let ((.def_798 (and .def_119 .def_797)))
(let ((.def_96 (and .s.5.next .def_95)))
(let ((.def_97 (and .def_47 .def_96)))
(let ((.def_98 (and .def_51 .def_97)))
(let ((.def_99 (and .def_55 .def_98)))
(let ((.def_100 (and .def_59 .def_99)))
(let ((.def_101 (and .def_63 .def_100)))
(let ((.def_90 (and .s.5 .def_89)))
(let ((.def_91 (not .def_90)))
(let ((.def_102 (or .def_91 .def_101)))
(let ((.def_799 (and .def_102 .def_798)))
(let ((.def_69 (and .s.5 .def_68)))
(let ((.def_70 (not .def_69)))
(let ((.def_85 (or .def_70 .def_84)))
(let ((.def_800 (and .def_85 .def_799)))
(let ((.def_30 (and .s.5 .def_29)))
(let ((.def_31 (not .def_30)))
(let ((.def_65 (or .def_31 .def_64)))
(let ((.def_801 (and .def_65 .def_800)))
.def_801))))))))))))))))))))))))))))))))))))))))))))))))))))))))))))))))))))))))))))))))))))))))))))))))))))))))))))))))))))))))))))))))))))))))))))))))))))))))))))))))))))))))))))))))))))))))))))))))))))))))))))))))))))))))))))))))))))))))))))))))))))))))))))))))))))))))))))))))))))))))))))))))))))))))))))))))))))))))))))))))))))))))))))))))))))))))))))))))))))))))))))))))))))))))))))))))))))))))))))))))))))))))))))))))))))))))))))))))))))))))))))))))))))))))))))))))))))))))))))))))))))))))))))))))))))))))))))))))))))))))))))))))))))))))))))))))))))))))))))))))))))))))))))))))))))))))))))))))))))))))))))))))))))))))))))))))))))))))))))))))))))))))))))))))))))))))))))))))))))))))))))))))))))))))))))))))))))))))))))))))))))))))))))))))))))))))))))))))))))))) (state |.s.1.next| |.s.0.next| |.s.2.next| |.s.3.next| |.s.4.next| |.s.5.next| |main.i.next| |main.j.next| |main.l.next| |main.r.next| |main.n.next|))))
(assert (forall ((|.s.4| Bool) (|.s.3| Bool) (|.s.5| Bool) (|.s.2| Bool) (|.s.0| Bool) (|.s.1| Bool) (|.s.1.next| Bool) (|.s.0.next| Bool) (|.s.2.next| Bool) (|.s.3.next| Bool) (|.s.4.next| Bool) (|.s.5.next| Bool) (|main.i.next| Int) (|main.i| Int) (|main.j.next| Int) (|main.j| Int) (|main.l.next| Int) (|main.l| Int) (|main.r.next| Int) (|main.r| Int) (|main.n.next| Int) (|main.n| Int) (|.inputVar.0| Int)) (=> (state |.s.1| |.s.0| |.s.2| |.s.3| |.s.4| |.s.5| |main.i| |main.j| |main.l| |main.r| |main.n|) (let ((.def_25 (not .s.0)))
(let ((.def_26 (and .s.1 .def_25)))
(let ((.def_27 (and .s.2 .def_26)))
(let ((.def_28 (and .s.3 .def_27)))
(let ((.def_20 (not .s.4)))
(let ((.def_29 (and .def_20 .def_28)))
(let ((.def_30 (and .s.5 .def_29)))
(let ((.def_31 (not .def_30)))
.def_31)))))))))))
(check-sat)
